cases/pglib-opf/pglib_opf_case179_goc.m
ipopt
ACR
[info | PowerModels]: removing 1 cost terms from generator 24: [3154.6461999999997, 0.0]
[info | PowerModels]: removing 1 cost terms from generator 4: [658.0729, 0.0]
[info | PowerModels]: removing 1 cost terms from generator 1: [2712.5018, 0.0]
[info | PowerModels]: removing 1 cost terms from generator 12: [3523.2014, 0.0]
[info | PowerModels]: removing 1 cost terms from generator 29: [4987.6052, 0.0]
[info | PowerModels]: removing 1 cost terms from generator 20: [1920.3903, 0.0]
[info | PowerModels]: removing 1 cost terms from generator 2: [2576.7823, 0.0]
[info | PowerModels]: removing 1 cost terms from generator 6: [2784.4304, 0.0]
[info | PowerModels]: removing 1 cost terms from generator 25: [2234.9251, 0.0]
[info | PowerModels]: removing 1 cost terms from generator 23: [2826.7848999999997, 0.0]
[info | PowerModels]: removing 1 cost terms from generator 22: [12467.253999999999, 0.0]
[info | PowerModels]: removing 1 cost terms from generator 11: [4935.4886, 0.0]
[info | PowerModels]: removing 1 cost terms from generator 13: [2189.1639, 0.0]
[info | PowerModels]: removing 1 cost terms from generator 5: [3178.4817, 0.0]
[info | PowerModels]: removing 1 cost terms from generator 15: [803.5714, 0.0]
[info | PowerModels]: removing 1 cost terms from generator 27: [1417.4214, 0.0]
[info | PowerModels]: removing 1 cost terms from generator 28: [861.4737999999999, 0.0]
[info | PowerModels]: removing 1 cost terms from generator 16: [3391.2129999999997, 0.0]
[info | PowerModels]: removing 1 cost terms from generator 14: [2538.3461, 0.0]
[info | PowerModels]: removing 1 cost terms from generator 21: [3082.0177999999996, 0.0]
[info | PowerModels]: removing 1 cost terms from generator 7: [4189.9242, 0.0]
[info | PowerModels]: removing 1 cost terms from generator 8: [2688.7509999999997, 0.0]
[info | PowerModels]: removing 1 cost terms from generator 26: [723.0771, 0.0]
[info | PowerModels]: removing 1 cost terms from generator 17: [2545.7586, 0.0]
[info | PowerModels]: removing 1 cost terms from generator 10: [2371.8395, 0.0]
[info | PowerModels]: removing 1 cost terms from generator 19: [848.7093, 0.0]
[info | PowerModels]: removing 1 cost terms from generator 9: [2664.7901, 0.0]
[info | PowerModels]: removing 1 cost terms from generator 18: [716.8126, 0.0]
[info | PowerModels]: removing 1 cost terms from generator 3: [3345.8505999999998, 0.0]

******************************************************************************
This program contains Ipopt, a library for large-scale nonlinear optimization.
 Ipopt is released as open source code under the Eclipse Public License (EPL).
         For more information visit http://projects.coin-or.org/Ipopt
******************************************************************************

This is Ipopt version 3.13.2, running with linear solver mumps.
NOTE: Other linear solvers might be more efficient (see Ipopt documentation).

Number of nonzeros in equality constraint Jacobian...:    11323
Number of nonzeros in inequality constraint Jacobian.:     5320
Number of nonzeros in Lagrangian Hessian.............:     9072

Total number of variables............................:     1468
                     variables with only lower bounds:        0
                variables with lower and upper bounds:     1468
                     variables with only upper bounds:        0
Total number of equality constraints.................:     1411
Total number of inequality constraints...............:     1328
        inequality constraints with only lower bounds:      401
   inequality constraints with lower and upper bounds:        0
        inequality constraints with only upper bounds:      927

iter    objective    inf_pr   inf_du lg(mu)  ||d||  lg(rg) alpha_du alpha_pr  ls
   0  7.1416038e+05 3.62e+01 1.75e+01  -1.0 0.00e+00    -  0.00e+00 0.00e+00   0
   1  7.2093223e+05 3.43e+01 1.64e+01  -1.0 3.45e+01    -  5.73e-03 5.29e-02h  2
   2  7.2203943e+05 3.33e+01 1.61e+01  -1.0 9.60e+01    -  1.07e-02 2.97e-02h  1
   3  7.2363856e+05 3.27e+01 1.56e+01  -1.0 1.75e+02    -  6.70e-02 1.90e-02h  1
   4  7.3166291e+05 3.03e+01 1.44e+01  -1.0 2.14e+02    -  1.19e-01 7.24e-02h  1
   5  7.4138975e+05 2.74e+01 2.53e+01  -1.0 3.48e+02    -  3.54e-01 9.73e-02h  1
   6  7.4649116e+05 2.57e+01 4.01e+01  -1.0 4.86e+02    -  2.24e-01 5.96e-02h  1
   7  7.5534962e+05 2.28e+01 7.85e+01  -1.0 5.45e+02    -  4.66e-01 1.13e-01h  1
   8  7.6256319e+05 2.02e+01 1.21e+02  -1.0 6.34e+02    -  2.49e-01 1.12e-01h  1
   9  7.6540644e+05 1.91e+01 2.26e+02  -1.0 6.84e+02    -  3.81e-01 5.43e-02h  1
iter    objective    inf_pr   inf_du lg(mu)  ||d||  lg(rg) alpha_du alpha_pr  ls
  10  7.7361207e+05 1.58e+01 3.07e+02  -1.0 6.94e+02    -  2.89e-01 1.75e-01h  2
  11  7.8469771e+05 1.02e+01 2.22e+02  -1.0 7.05e+02    -  5.66e-01 3.55e-01H  1
  12  7.8496636e+05 9.38e+00 1.54e+02  -1.0 6.05e+02    -  2.21e-01 7.98e-02h  1
  13  7.8430355e+05 5.64e+00 1.10e+02  -1.0 5.72e+02    -  3.40e-01 3.99e-01h  1
  14  7.8187058e+05 5.22e+00 1.20e+02  -1.0 4.59e+02    -  7.18e-03 7.50e-02f  1
  15  7.7609116e+05 4.53e+00 2.68e+01  -1.0 6.80e+02    -  3.99e-01 1.31e-01f  1
  16  7.7398006e+05 4.30e+00 1.62e+01  -1.0 7.19e+02    -  1.52e-01 5.02e-02f  1
  17  7.6906200e+05 3.76e+00 9.17e+01  -1.0 7.57e+02    -  7.12e-01 1.26e-01f  1
  18  7.6609109e+05 3.48e+00 1.02e+02  -1.0 7.66e+02    -  3.38e-01 7.54e-02f  1
  19  7.6014198e+05 2.36e+00 6.95e+01  -1.0 4.87e+02    -  3.32e-01 3.22e-01f  1
iter    objective    inf_pr   inf_du lg(mu)  ||d||  lg(rg) alpha_du alpha_pr  ls
  20  7.5946774e+05 2.23e+00 1.14e+02  -1.0 5.75e+02    -  5.04e-01 5.53e-02f  1
  21  7.5833543e+05 1.93e+00 1.28e+02  -1.0 5.49e+02    -  6.72e-01 1.35e-01f  1
  22  7.5734528e+05 1.38e+00 4.01e+01  -1.0 3.56e+02    -  9.98e-01 7.08e-01h  1
  23  7.5538693e+05 2.13e+00 2.80e+01  -1.0 7.69e+02    -  1.95e-01 2.27e-01f  1
  24  7.5509388e+05 2.00e+00 3.22e+01  -1.0 6.88e+02    -  2.75e-01 8.63e-02h  1
  25  7.5512944e+05 1.31e+00 2.05e+01  -1.0 3.99e+02    -  3.05e-01 3.61e-01h  1
  26  7.5523671e+05 8.31e-01 1.24e+01  -1.0 3.00e+02    -  4.76e-01 4.16e-01h  1
  27  7.5510578e+05 1.39e+00 5.42e+00  -1.0 5.32e+02    -  3.76e-01 1.00e+00h  1
  28  7.5487441e+05 6.12e+00 3.46e+00  -1.0 2.24e+03    -  1.93e-01 1.07e-01h  1
  29  7.5488952e+05 2.62e-01 3.43e-01  -1.0 5.16e+01    -  1.00e+00 1.00e+00h  1
iter    objective    inf_pr   inf_du lg(mu)  ||d||  lg(rg) alpha_du alpha_pr  ls
  30  7.5486077e+05 9.35e-02 3.80e-02  -1.0 1.08e+02    -  1.00e+00 1.00e+00h  1
  31  7.5487005e+05 1.96e-03 1.97e-02  -1.0 1.33e+01    -  1.00e+00 1.00e+00h  1
  32  7.5447815e+05 2.39e-02 1.02e-01  -2.5 1.08e+02    -  7.52e-01 7.58e-01f  1
  33  7.5433693e+05 8.12e-02 1.88e-01  -2.5 1.46e+02    -  6.60e-01 7.30e-01h  1
  34  7.5429850e+05 3.72e-02 4.52e-01  -2.5 1.10e+02    -  8.42e-01 5.69e-01h  1
  35  7.5428664e+05 1.82e-02 9.40e-01  -2.5 5.45e+01    -  1.00e+00 5.13e-01h  1
  36  7.5428281e+05 4.32e-03 5.73e-03  -2.5 1.04e+01    -  1.00e+00 1.00e+00h  1
  37  7.5428286e+05 5.47e-05 8.18e-05  -2.5 2.17e+00    -  1.00e+00 1.00e+00h  1
  38  7.5427216e+05 2.37e-03 1.62e-01  -3.8 2.53e+01    -  7.43e-01 6.63e-01h  1
  39  7.5426755e+05 5.88e-03 2.80e-01  -3.8 2.39e+01    -  1.00e+00 8.69e-01h  1
iter    objective    inf_pr   inf_du lg(mu)  ||d||  lg(rg) alpha_du alpha_pr  ls
  40  7.5426713e+05 1.81e-03 1.18e-03  -3.8 1.16e+01    -  1.00e+00 1.00e+00h  1
  41  7.5426718e+05 1.30e-05 8.20e-06  -3.8 8.39e-01    -  1.00e+00 1.00e+00h  1
  42  7.5426652e+05 4.59e-04 6.18e-02  -5.7 6.79e+00    -  9.46e-01 8.47e-01h  1
  43  7.5426642e+05 6.26e-05 3.75e-05  -5.7 1.79e+00    -  1.00e+00 1.00e+00h  1
  44  7.5426642e+05 6.33e-08 3.11e-08  -5.7 5.35e-02    -  1.00e+00 1.00e+00h  1
  45  7.5426641e+05 1.89e-07 4.74e-05  -8.6 1.07e-01    -  1.00e+00 9.95e-01h  1
  46  7.5426641e+05 1.13e-11 1.14e-11  -8.6 7.40e-04    -  1.00e+00 1.00e+00h  1

Number of Iterations....: 46

                                   (scaled)                 (unscaled)
Objective...............:   6.0499803260833269e+03    7.5426641420283657e+05
Dual infeasibility......:   1.1384993879325817e-11    1.4193961048200030e-09
Constraint violation....:   3.3999469906120794e-12    1.1312062397905720e-11
Complementarity.........:   2.5062847231007954e-09    3.1246488239217282e-07
Overall NLP error.......:   2.5062847231007954e-09    3.1246488239217282e-07


Number of objective function evaluations             = 54
Number of objective gradient evaluations             = 47
Number of equality constraint evaluations            = 54
Number of inequality constraint evaluations          = 54
Number of equality constraint Jacobian evaluations   = 47
Number of inequality constraint Jacobian evaluations = 47
Number of Lagrangian Hessian evaluations             = 46
Total CPU secs in IPOPT (w/o function evaluations)   =      1.096
Total CPU secs in NLP function evaluations           =      0.241

EXIT: Optimal Solution Found.
Time to Solution........:2.049367904663086
